(set-option :produce-models true); benchmark generated from python API
(set-info :status unknown)
(declare-fun l_1_0_9 () Real)
(declare-fun l_1_0_12 () Real)
(declare-fun _a_0_ () Real)
(declare-fun l_1_0_8 () Real)
(declare-fun l_1_0_7 () Real)
(declare-fun l_1_0_6 () Real)
(declare-fun l_1_0_5 () Real)
(declare-fun l_1_0_4 () Real)
(declare-fun l_1_0_3 () Real)
(declare-fun l_1_0_2 () Real)
(declare-fun l_1_0_1 () Real)
(declare-fun _a_1_ () Real)
(declare-fun l_1_0_10 () Real)
(declare-fun _a_2_ () Real)
(declare-fun l_1_0_11 () Real)
(declare-fun _a_3_ () Real)
(declare-fun l_1_0_13 () Real)
(declare-fun _a_4_ () Real)
(declare-fun l_1_0_14 () Real)
(declare-fun _a_5_ () Real)
(declare-fun l_1_1_9 () Real)
(declare-fun l_1_1_8 () Real)
(declare-fun l_1_1_7 () Real)
(declare-fun l_1_1_5 () Real)
(declare-fun l_1_1_4 () Real)
(declare-fun l_1_1_3 () Real)
(declare-fun l_1_1_15 () Real)
(declare-fun l_1_1_14 () Real)
(declare-fun l_1_1_12 () Real)
(declare-fun l_1_1_11 () Real)
(declare-fun l_1_1_6 () Real)
(declare-fun l_1_1_2 () Real)
(declare-fun l_1_1_13 () Real)
(declare-fun l_1_1_10 () Real)
(declare-fun l_1_1_1 () Real)
(declare-fun l_1_1_16 () Real)
(declare-fun l_1_1_20 () Real)
(declare-fun l_1_1_19 () Real)
(declare-fun l_1_1_18 () Real)
(declare-fun l_1_1_17 () Real)
(declare-fun l_1_2_9 () Real)
(declare-fun l_1_2_6 () Real)
(declare-fun l_1_2_3 () Real)
(declare-fun l_1_2_20 () Real)
(declare-fun l_1_2_2 () Real)
(declare-fun l_1_2_19 () Real)
(declare-fun l_1_2_18 () Real)
(declare-fun l_1_2_13 () Real)
(declare-fun l_1_2_10 () Real)
(declare-fun l_1_2_1 () Real)
(declare-fun l_1_2_7 () Real)
(declare-fun l_1_2_5 () Real)
(declare-fun l_1_2_11 () Real)
(declare-fun l_1_2_16 () Real)
(declare-fun l_1_2_15 () Real)
(declare-fun l_1_2_8 () Real)
(declare-fun l_1_2_4 () Real)
(declare-fun l_1_2_14 () Real)
(declare-fun l_1_2_12 () Real)
(declare-fun l_1_2_17 () Real)
(assert
 (= (- _a_0_ (* (* 2.0 l_1_0_12) l_1_0_9)) 0.0))
(assert
 (let ((?x1507 (* l_1_0_9 l_1_0_9)))
 (let ((?x1503 (- (- (- _a_1_ (* 1.0 l_1_0_1)) (* 1.0 l_1_0_2)) (* 1.0 l_1_0_3))))
 (let ((?x1506 (- (- (- (- ?x1503 (* 1.0 l_1_0_4)) l_1_0_5) l_1_0_6) l_1_0_7)))
 (= (- (- ?x1506 l_1_0_8) ?x1507) 0.0)))))
(assert
 (= (- _a_2_ (* (* 2.0 l_1_0_10) l_1_0_9)) 0.0))
(assert
 (let ((?x1420 (* 2.0 l_1_0_2)))
 (let ((?x518 (* l_1_0_11 l_1_0_11)))
 (let ((?x1422 (+ (+ (- (- (+ _a_3_ l_1_0_1) (* l_1_0_10 l_1_0_10)) ?x518) ?x1420) l_1_0_3)))
 (= (+ ?x1422 l_1_0_4) 0.0)))))
(assert
 (let ((?x1335 (- (- _a_4_ (* (* 2.0 l_1_0_10) l_1_0_12)) (* (* 2.0 l_1_0_11) l_1_0_13))))
 (= ?x1335 0.0)))
(assert
 (let ((?x1420 (* 2.0 l_1_0_2)))
 (let ((?x1291 (* l_1_0_14 l_1_0_14)))
 (let ((?x1084 (* l_1_0_13 l_1_0_13)))
 (let ((?x1295 (+ (- (- (- (+ _a_5_ l_1_0_1) (* l_1_0_12 l_1_0_12)) ?x1084) ?x1291) ?x1420)))
 (= (+ (+ ?x1295 l_1_0_3) l_1_0_4) 0.0))))))
(assert
 (= (- l_1_0_2) 0.0))
(assert
 (= (* (- 2.0) l_1_0_2) 0.0))
(assert
 (= (- l_1_0_2) 0.0))
(assert
 (>= l_1_0_1 0.0))
(assert
 (>= l_1_0_2 0.0))
(assert
 (>= l_1_0_3 0.0))
(assert
 (>= l_1_0_4 0.0))
(assert
 (>= l_1_0_5 0.0))
(assert
 (>= l_1_0_6 0.0))
(assert
 (>= l_1_0_7 0.0))
(assert
 (>= l_1_0_8 0.0))
(assert
 (>= l_1_0_9 0.0))
(assert
 (>= l_1_0_11 0.0))
(assert
 (>= l_1_0_14 0.0))
(assert
 (let ((?x1091 (* 3.0 l_1_1_9)))
 (let ((?x1082 (* 3.0 l_1_1_5)))
 (let ((?x1078 (* 9.0 l_1_1_3)))
 (let ((?x906 (* l_1_1_15 l_1_1_15)))
 (let ((?x1192 (* 3.0 l_1_1_12)))
 (let ((?x937 (* _a_1_ l_1_1_13)))
 (let ((?x1188 (+ (- (- (* (- _a_1_) l_1_1_1) (* _a_1_ l_1_1_10)) ?x937) (* (* 3.0 _a_1_) l_1_1_2))))
 (let ((?x313 (- (+ (- (+ ?x1188 (* (* 3.0 _a_1_) l_1_1_6)) l_1_1_11) ?x1192) l_1_1_14)))
 (let ((?x1089 (- (- (+ (- (- (- ?x313 ?x906) ?x1078) l_1_1_4) ?x1082) l_1_1_7) (* (* l_1_1_8 _a_1_) _a_1_))))
 (= (+ (+ ?x1089 ?x1091) 1.0) 0.0)))))))))))
(assert
 (let ((?x920 (* _a_2_ l_1_1_13)))
 (let ((?x918 (* _a_2_ l_1_1_10)))
 (let ((?x915 (* _a_2_ l_1_1_1)))
 (let ((?x921 (- (- (- (* (* (* (- 2.0) _a_1_) _a_2_) l_1_1_8) ?x915) ?x918) ?x920)))
 (let ((?x926 (+ (+ ?x921 (* (* 3.0 _a_2_) l_1_1_2)) (* (* 3.0 _a_2_) l_1_1_6))))
 (= (+ (- ?x926 (* (* 2.0 l_1_1_15) l_1_1_16)) 1.0) 0.0)))))))
(assert
 (let ((?x879 (* 6.0 l_1_1_3)))
 (let ((?x878 (* l_1_1_20 l_1_1_20)))
 (let ((?x876 (* l_1_1_19 l_1_1_19)))
 (let ((?x324 (* l_1_1_18 l_1_1_18)))
 (let ((?x27 (* _a_5_ l_1_1_13)))
 (let ((?x323 (- (- (- (* (- _a_5_) l_1_1_1) (* _a_5_ l_1_1_10)) ?x27) l_1_1_12)))
 (let ((?x334 (- (- (- ?x323 ?x324) ?x876) (* l_1_1_2 (- _a_1_ (* 3.0 _a_5_))))))
 (let ((?x429 (- (- (+ (- ?x334 ?x878) ?x879) l_1_1_5) (* l_1_1_6 (- _a_1_ (* 3.0 _a_5_))))))
 (let ((?x840 (- ?x429 (* l_1_1_8 (+ (* _a_0_ _a_0_) (* (* 2.0 _a_1_) _a_5_))))))
 (= (- (- ?x840 l_1_1_9) (/ 1.0 5.0)) 0.0)))))))))))
(assert
 (let ((?x38 (* _a_0_ l_1_1_13)))
 (let ((?x447 (* _a_0_ l_1_1_10)))
 (let ((?x445 (* _a_0_ l_1_1_1)))
 (let ((?x449 (- (- (- (* (* (* (- 2.0) _a_0_) _a_1_) l_1_1_8) ?x445) ?x447) ?x38)))
 (let ((?x453 (+ (+ ?x449 (* (* 3.0 _a_0_) l_1_1_2)) (* (* 3.0 _a_0_) l_1_1_6))))
 (= (- ?x453 (* (* 2.0 l_1_1_15) l_1_1_18)) 0.0)))))))
(assert
 (let ((?x879 (* 6.0 l_1_1_3)))
 (let ((?x289 (* l_1_1_17 l_1_1_17)))
 (let ((?x287 (* l_1_1_16 l_1_1_16)))
 (let ((?x349 (* _a_3_ l_1_1_13)))
 (let ((?x286 (- (- (- (* (- _a_3_) l_1_1_1) (* _a_3_ l_1_1_10)) ?x349) l_1_1_12)))
 (let ((?x296 (- (- (- ?x286 ?x287) ?x289) (* l_1_1_2 (- _a_1_ (* 3.0 _a_3_))))))
 (let ((?x265 (- (- (+ ?x296 ?x879) l_1_1_5) (* l_1_1_6 (- _a_1_ (* 3.0 _a_3_))))))
 (let ((?x272 (- ?x265 (* l_1_1_8 (+ (* (* 2.0 _a_1_) _a_3_) (* _a_2_ _a_2_))))))
 (= (- ?x272 l_1_1_9) 0.0))))))))))
(assert
 (let ((?x64 (+ (* (* 2.0 _a_0_) _a_2_) (* (* 2.0 _a_1_) _a_4_))))
 (let ((?x142 (* _a_4_ l_1_1_13)))
 (let ((?x116 (+ (- (- (* (- _a_4_) l_1_1_1) (* _a_4_ l_1_1_10)) ?x142) (* (* 3.0 _a_4_) l_1_1_2))))
 (let ((?x102 (- (+ ?x116 (* (* 3.0 _a_4_) l_1_1_6)) (* (* 2.0 l_1_1_16) l_1_1_18))))
 (= (- (- ?x102 (* (* 2.0 l_1_1_17) l_1_1_19)) (* l_1_1_8 ?x64)) 0.0))))))
(assert
 (let ((?x328 (* _a_0_ l_1_1_6)))
 (let ((?x326 (* _a_0_ l_1_1_2)))
 (= (- (- (* (* (* (- 2.0) _a_0_) _a_5_) l_1_1_8) ?x326) ?x328) 0.0))))
(assert
 (let ((?x1471 (+ (* (* 2.0 _a_0_) _a_3_) (* (* 2.0 _a_2_) _a_4_))))
 (let ((?x1483 (- (- (* (- _a_0_) l_1_1_2) (* _a_0_ l_1_1_6)) (* l_1_1_8 ?x1471))))
 (= ?x1483 0.0))))
(assert
 (let ((?x301 (+ (* (* 2.0 _a_0_) _a_4_) (* (* 2.0 _a_2_) _a_5_))))
 (let ((?x303 (- (- (* (- _a_2_) l_1_1_2) (* _a_2_ l_1_1_6)) (* l_1_1_8 ?x301))))
 (= ?x303 0.0))))
(assert
 (let ((?x34 (* _a_2_ l_1_1_6)))
 (let ((?x35 (* _a_2_ l_1_1_2)))
 (= (- (- (* (* (* (- 2.0) _a_2_) _a_3_) l_1_1_8) ?x35) ?x34) 0.0))))
(assert
 (let ((?x980 (- (- (* (- l_1_1_2) (+ _a_3_ _a_5_)) (* 2.0 l_1_1_3)) (* l_1_1_6 (+ _a_3_ _a_5_)))))
 (let ((?x846 (- ?x980 (* l_1_1_8 (+ (* (* 2.0 _a_3_) _a_5_) (* _a_4_ _a_4_))))))
 (= ?x846 0.0))))
(assert
 (let ((?x1203 (- (- (- (* (- _a_3_) l_1_1_2) (* _a_3_ l_1_1_6)) l_1_1_3) (* (* l_1_1_8 _a_3_) _a_3_))))
 (= ?x1203 0.0)))
(assert
 (let ((?x358 (* _a_4_ l_1_1_6)))
 (let ((?x357 (* _a_4_ l_1_1_2)))
 (= (- (- (* (* (* (- 2.0) _a_4_) _a_5_) l_1_1_8) ?x357) ?x358) 0.0))))
(assert
 (let ((?x358 (* _a_4_ l_1_1_6)))
 (let ((?x357 (* _a_4_ l_1_1_2)))
 (= (- (- (* (* (* (- 2.0) _a_3_) _a_4_) l_1_1_8) ?x357) ?x358) 0.0))))
(assert
 (let ((?x1494 (- (- (- (* (- _a_5_) l_1_1_2) (* _a_5_ l_1_1_6)) l_1_1_3) (* (* l_1_1_8 _a_5_) _a_5_))))
 (= ?x1494 0.0)))
(assert
 (>= l_1_1_1 0.0))
(assert
 (>= l_1_1_2 0.0))
(assert
 (>= l_1_1_3 0.0))
(assert
 (>= l_1_1_4 0.0))
(assert
 (>= l_1_1_5 0.0))
(assert
 (>= l_1_1_6 0.0))
(assert
 (>= l_1_1_7 0.0))
(assert
 (>= l_1_1_8 0.0))
(assert
 (>= l_1_1_9 0.0))
(assert
 (>= l_1_1_10 0.0))
(assert
 (>= l_1_1_11 0.0))
(assert
 (>= l_1_1_12 0.0))
(assert
 (>= l_1_1_13 0.0))
(assert
 (>= l_1_1_14 0.0))
(assert
 (>= l_1_1_15 0.0))
(assert
 (>= l_1_1_17 0.0))
(assert
 (>= l_1_1_20 0.0))
(assert
 (let ((?x1438 (* l_1_2_20 l_1_2_20)))
 (let ((?x1433 (* 6.0 l_1_2_2)))
 (let ((?x1429 (* l_1_2_19 l_1_2_19)))
 (let ((?x1427 (* l_1_2_18 l_1_2_18)))
 (let ((?x1524 (* 2.0 _a_5_)))
 (let ((?x488 (* _a_5_ l_1_2_7)))
 (let ((?x487 (* _a_5_ l_1_2_5)))
 (let ((?x1415 (- (- (- (+ _a_0_ (* 1.0 _a_4_)) (* _a_5_ l_1_2_11)) ?x487) ?x488)))
 (let ((?x1316 (- (+ (- ?x1415 ?x1524) l_1_2_1) (* l_1_2_10 (+ (- _a_1_) (* 3.0 _a_5_))))))
 (let ((?x1434 (+ (- (+ (- (- (+ ?x1316 l_1_2_13) ?x1427) ?x1429) ?x1433) ?x1438) l_1_2_3)))
 (let ((?x1436 (- ?x1434 (* l_1_2_6 (+ (* _a_0_ _a_0_) (* (* 2.0 _a_1_) _a_5_))))))
 (= (- ?x1436 (* l_1_2_9 (+ (- _a_1_) (* 3.0 _a_5_)))) 0.0)))))))))))))
(assert
 (let ((?x1524 (* 2.0 _a_5_)))
 (let ((?x409 (* 1.0 _a_4_)))
 (let ((?x547 (* _a_2_ l_1_2_7)))
 (let ((?x546 (* _a_2_ l_1_2_5)))
 (let ((?x550 (* _a_2_ l_1_2_11)))
 (let ((?x541 (- (- _a_0_ (* (* (* 2.0 _a_1_) _a_2_) l_1_2_6)) (* (* 3.0 _a_2_) l_1_2_10))))
 (let ((?x809 (- (- (- (- ?x541 ?x550) ?x546) ?x547) (* (* 3.0 _a_2_) l_1_2_9))))
 (= (- (- (+ ?x809 ?x409) ?x1524) (* (* 2.0 l_1_2_15) l_1_2_16)) 0.0)))))))))
(assert
 (let ((?x682 (* 3.0 l_1_2_3)))
 (let ((?x480 (* 9.0 l_1_2_2)))
 (let ((?x732 (* l_1_2_15 l_1_2_15)))
 (let ((?x831 (* 3.0 l_1_2_13)))
 (let ((?x1022 (* 3.0 l_1_2_1)))
 (let ((?x409 (* 1.0 _a_4_)))
 (let ((?x1279 (* _a_1_ l_1_2_7)))
 (let ((?x152 (* _a_1_ l_1_2_5)))
 (let ((?x125 (* _a_1_ l_1_2_11)))
 (let ((?x1278 (- (- (- (* (- 1.0) _a_0_) (* (* 3.0 _a_1_) l_1_2_10)) ?x125) ?x152)))
 (let ((?x365 (+ (+ (- (- ?x1278 ?x1279) (* (* 3.0 _a_1_) l_1_2_9)) _a_1_) (* 1.0 _a_2_))))
 (let ((?x832 (- (+ (- (+ ?x365 (* 1.0 _a_3_)) ?x409) (* 1.0 _a_5_)) ?x1022)))
 (let ((?x684 (- (- (- (- (- (- ?x832 l_1_2_12) ?x831) l_1_2_14) ?x732) ?x480) ?x682)))
 (let ((?x1364 (- (- (- ?x684 l_1_2_4) (* (* l_1_2_6 _a_1_) _a_1_)) l_1_2_8)))
 (= ?x1364 0.0))))))))))))))))
(assert
 (let ((?x64 (+ (* (* 2.0 _a_0_) _a_2_) (* (* 2.0 _a_1_) _a_4_))))
 (let ((?x727 (* 2.0 _a_4_)))
 (let ((?x992 (* _a_4_ l_1_2_7)))
 (let ((?x991 (* _a_4_ l_1_2_5)))
 (let ((?x503 (* _a_4_ l_1_2_11)))
 (let ((?x501 (* 4.0 _a_3_)))
 (let ((?x1469 (* 2.0 _a_2_)))
 (let ((?x505 (+ ?x1469 ?x501)))
 (let ((?x724 (- (- (- (- ?x505 (* (* 3.0 _a_4_) l_1_2_10)) ?x503) ?x991) ?x992)))
 (let ((?x470 (- (- (- ?x724 (* (* 3.0 _a_4_) l_1_2_9)) ?x727) (* (* 2.0 l_1_2_16) l_1_2_18))))
 (= (- (- ?x470 (* (* 2.0 l_1_2_17) l_1_2_19)) (* l_1_2_6 ?x64)) 0.0))))))))))))
(assert
 (let ((?x1433 (* 6.0 l_1_2_2)))
 (let ((?x98 (* l_1_2_17 l_1_2_17)))
 (let ((?x964 (* l_1_2_16 l_1_2_16)))
 (let ((?x409 (* 1.0 _a_4_)))
 (let ((?x981 (* 2.0 _a_3_)))
 (let ((?x1405 (* _a_3_ l_1_2_7)))
 (let ((?x1406 (+ (- (- (- _a_2_ (* _a_3_ l_1_2_11)) (* _a_3_ l_1_2_5)) ?x1405) ?x981)))
 (let ((?x1201 (- (+ (+ (- ?x1406 ?x409) _a_5_) l_1_2_1) (* l_1_2_10 (+ (- _a_1_) (* 3.0 _a_3_))))))
 (let ((?x1247 (- (+ (+ (- (- (+ ?x1201 l_1_2_13) ?x964) ?x98) ?x1433) l_1_2_3) (* l_1_2_6 (+ (* (* 2.0 _a_1_) _a_3_) (* _a_2_ _a_2_))))))
 (= (- ?x1247 (* l_1_2_9 (+ (- _a_1_) (* 3.0 _a_3_)))) 0.0)))))))))))
(assert
 (let ((?x1166 (* 2.0 l_1_2_2)))
 (let ((?x501 (* 4.0 _a_3_)))
 (let ((?x1304 (+ ?x501 _a_4_)))
 (let ((?x1164 (- (- (- ?x1304 (* l_1_2_10 (- (- _a_3_) _a_5_))) ?x1166) (* l_1_2_6 (+ (* (* 2.0 _a_3_) _a_5_) (* _a_4_ _a_4_))))))
 (= (- ?x1164 (* l_1_2_9 (- (- _a_3_) _a_5_))) 0.0))))))
(assert
 (let ((?x676 (* _a_4_ l_1_2_9)))
 (let ((?x974 (* _a_4_ l_1_2_10)))
 (let ((?x1497 (+ (+ (* (* (* (- 2.0) _a_3_) _a_4_) l_1_2_6) (* 4.0 _a_3_)) ?x974)))
 (= (+ ?x1497 ?x676) 0.0)))))
(assert
 (let ((?x1104 (- (+ (+ (* _a_3_ l_1_2_10) (* _a_3_ l_1_2_9)) _a_3_) l_1_2_2)))
 (= (- ?x1104 (* (* l_1_2_6 _a_3_) _a_3_)) 0.0)))
(assert
 (let ((?x727 (* 2.0 _a_4_)))
 (let ((?x676 (* _a_4_ l_1_2_9)))
 (let ((?x974 (* _a_4_ l_1_2_10)))
 (let ((?x1366 (+ (+ (+ (* (* (* (- 2.0) _a_4_) _a_5_) l_1_2_6) ?x974) ?x676) ?x727)))
 (= ?x1366 0.0))))))
(assert
 (let ((?x1471 (+ (* (* 2.0 _a_0_) _a_3_) (* (* 2.0 _a_2_) _a_4_))))
 (let ((?x727 (* 2.0 _a_4_)))
 (let ((?x994 (- (+ (+ (* _a_0_ l_1_2_10) (* _a_0_ l_1_2_9)) ?x727) (* l_1_2_6 ?x1471))))
 (= ?x994 0.0)))))
(assert
 (let ((?x1230 (* _a_2_ l_1_2_9)))
 (let ((?x174 (* _a_2_ l_1_2_10)))
 (let ((?x425 (+ (+ (+ (* (* (* (- 2.0) _a_2_) _a_3_) l_1_2_6) ?x174) ?x1230) _a_4_)))
 (= ?x425 0.0)))))
(assert
 (let ((?x318 (- (+ (+ (* _a_5_ l_1_2_10) (* _a_5_ l_1_2_9)) _a_5_) l_1_2_2)))
 (= (- ?x318 (* (* l_1_2_6 _a_5_) _a_5_)) 0.0)))
(assert
 (let ((?x301 (+ (* (* 2.0 _a_0_) _a_4_) (* (* 2.0 _a_2_) _a_5_))))
 (let ((?x1524 (* 2.0 _a_5_)))
 (let ((?x160 (- (+ (+ (* _a_2_ l_1_2_10) (* _a_2_ l_1_2_9)) ?x1524) (* l_1_2_6 ?x301))))
 (= ?x160 0.0)))))
(assert
 (let ((?x1577 (* _a_0_ l_1_2_7)))
 (let ((?x1575 (* _a_0_ l_1_2_5)))
 (let ((?x1573 (* _a_0_ l_1_2_11)))
 (let ((?x1572 (- (* (* (* (- 2.0) _a_0_) _a_1_) l_1_2_6) (* (* 3.0 _a_0_) l_1_2_10))))
 (let ((?x1580 (- (- (- (- ?x1572 ?x1573) ?x1575) ?x1577) (* (* 3.0 _a_0_) l_1_2_9))))
 (= (- ?x1580 (* (* 2.0 l_1_2_15) l_1_2_18)) 0.0)))))))
(assert
 (let ((?x1167 (* _a_0_ l_1_2_9)))
 (let ((?x1233 (* _a_0_ l_1_2_10)))
 (= (+ (+ (* (* (* (- 2.0) _a_0_) _a_5_) l_1_2_6) ?x1233) ?x1167) 0.0))))
(assert
 (>= l_1_2_1 0.0))
(assert
 (>= l_1_2_2 0.0))
(assert
 (>= l_1_2_3 0.0))
(assert
 (>= l_1_2_4 0.0))
(assert
 (>= l_1_2_5 0.0))
(assert
 (>= l_1_2_6 0.0))
(assert
 (>= l_1_2_7 0.0))
(assert
 (>= l_1_2_8 0.0))
(assert
 (>= l_1_2_9 0.0))
(assert
 (>= l_1_2_10 0.0))
(assert
 (>= l_1_2_11 0.0))
(assert
 (>= l_1_2_12 0.0))
(assert
 (>= l_1_2_13 0.0))
(assert
 (>= l_1_2_14 0.0))
(assert
 (>= l_1_2_15 0.0))
(assert
 (>= l_1_2_17 0.0))
(assert
 (>= l_1_2_20 0.0))
(check-sat)
(get-model)